outputs/case_28.model.txt
internal_control_defined_by_authority = True
internal_control_complies_with_regulations = True
internal_control_sales_compliance = False
business_operates_according_to_laws = False
business_operates_according_to_articles = True
business_operates_according_to_internal_control = False
customer_investment_knowledge_assessed = False
customer_investment_experience_assessed = False
customer_financial_status_assessed = False
customer_risk_tolerance_assessed = False
internal_control_short_swing_prevention = False
internal_control_legal_compliance = False
identity_document_submitted = True
basic_information_filled = True
subscription_redemption_follow_contract = False
subscription_redemption_follow_prospectus = False
subscription_redemption_follow_industry_procedures = False
internal_control_change_updated_on_notice = True
warning_issued = True
corrective_action_taken = False
personnel_replaced = False
business_suspension_ordered = False
license_revoked = False
other_measures_taken = False
internal_control_change_reported_to_board = False
internal_control_change_board_approved = False
internal_control_change_recorded = False
short_swing_trading_identified = False
authority_or_designated_institution_notified_change = False
internal_control_change_completed_within_deadline = False
short_swing_trading_fee_deducted = False
internal_control_aml_compliance = False
aml_regulations_complied = False
large_or_suspicious_transaction_recorded = False
short_swing_trading_fee_included_in_assets = False
internal_control_custody_compliance = False
violate_specified_articles_or_orders = False
violate_order = False
internal_control_change_approved = False
first_time_customer_identity_verified = True
penalty_measures = True
fail_to_attend_inquiry_without_reason = False
fail_to_provide_required_documents = False
internal_control_operation_compliance = False
subscription_redemption_procedures_complied = False
penalty_fine_conditions = False
customer_knowledge_assessed = False
fail_to_submit_documents_or_reports = False
short_swing_trading_fee_deducted_and_included_in_assets = False
penalty = False
obstruct_or_refuse_inspection = False
large_or_suspicious_transactions_recorded_and_aml_complied = False
violate_law = False
internal_control_established = True
violation_penalty_applicable = False
internal_control_system_comprehensive = False